Sun 20 May 09:03:58 CEST 2018
CPXPARAM_TimeLimit                               45
CPXPARAM_Threads                                 4
CPXPARAM_MIP_Strategy_CallbackReducedLP          0
Tried aggregator 12 times.
MIP Presolve eliminated 4364 rows and 3700 columns.
MIP Presolve modified 2442 coefficients.
Aggregator did 5896 substitutions.
Reduced MIP has 7546 rows, 6957 columns, and 18350 nonzeros.
Reduced MIP has 6500 binaries, 13 generals, 0 SOSs, and 1352 indicators.
Presolve time = 0.12 sec. (187.73 ticks)
Probing fixed 16 vars, tightened 0 bounds.
Probing changed sense of 7 constraints.
Probing time = 0.12 sec. (54.28 ticks)
Tried aggregator 5 times.
MIP Presolve eliminated 1404 rows and 472 columns.
MIP Presolve modified 200 coefficients.
Aggregator did 3568 substitutions.
Reduced MIP has 2574 rows, 2917 columns, and 9478 nonzeros.
Reduced MIP has 2548 binaries, 369 generals, 0 SOSs, and 1160 indicators.
Presolve time = 0.04 sec. (45.64 ticks)
Probing time = 0.07 sec. (49.51 ticks)
Tried aggregator 3 times.
Aggregator did 200 substitutions.
Reduced MIP has 2374 rows, 2717 columns, and 9078 nonzeros.
Reduced MIP has 2348 binaries, 369 generals, 0 SOSs, and 1160 indicators.
Presolve time = 0.01 sec. (15.53 ticks)
Probing time = 0.01 sec. (4.31 ticks)
Clique table members: 51876.
MIP emphasis: balance optimality and feasibility.
MIP search method: dynamic search.
Parallel mode: deterministic, using up to 4 threads.
Root relaxation solution time = 0.01 sec. (12.93 ticks)

        Nodes                                         Cuts/
   Node  Left     Objective  IInf  Best Integer    Best Bound    ItCnt     Gap

      0     0        0.0000  1114                      0.0000      262         
*     0+    0                           26.0000        0.0000           100.00%
      0     0        0.0000  1129       26.0000  Cliques: 693      426  100.00%
*     0+    0                           25.0000        0.0000           100.00%
      0     0        0.0000   965       25.0000  Cliques: 693      636  100.00%
*     0+    0                           22.0000        0.0000           100.00%
      0     0        0.0000   744       22.0000  Cliques: 693      989  100.00%
*     0+    0                           20.0000        0.0000           100.00%
      0     0        0.0000   709       20.0000  Cliques: 693     1564  100.00%
*     0+    0                           18.0000        0.0000           100.00%
      0     0        0.0000   533       18.0000  Cliques: 693     2183  100.00%

Repeating presolve.
Tried aggregator 3 times.
MIP Presolve eliminated 834 rows and 877 columns.
Aggregator did 4 substitutions.
Reduced MIP has 1536 rows, 1783 columns, and 5784 nonzeros.
Reduced MIP has 1540 binaries, 243 generals, 0 SOSs, and 746 indicators.
Presolve time = 0.01 sec. (14.28 ticks)
Probing time = 0.03 sec. (22.21 ticks)
Tried aggregator 1 time.
Reduced MIP has 1536 rows, 1783 columns, and 5784 nonzeros.
Reduced MIP has 1540 binaries, 243 generals, 0 SOSs, and 746 indicators.
Presolve time = 0.01 sec. (5.65 ticks)
Represolve time = 0.13 sec. (168.20 ticks)
Probing time = 0.00 sec. (3.54 ticks)
Clique table members: 21026.
MIP emphasis: balance optimality and feasibility.
MIP search method: dynamic search.
Parallel mode: deterministic, using up to 4 threads.
Root relaxation solution time = 0.04 sec. (29.83 ticks)

        Nodes                                         Cuts/
   Node  Left     Objective  IInf  Best Integer    Best Bound    ItCnt     Gap

*     0+    0                           18.0000        0.0000           100.00%
      0     0        0.0000   420       18.0000        0.0000     2582  100.00%
*     0+    0                           17.0000        0.0000           100.00%
      0     0        0.0000   278       17.0000  Cliques: 484     2844  100.00%
      0     0        0.0000   320       17.0000  Cliques: 484     2914  100.00%
      0     0        0.0000   384       17.0000  Cliques: 484     3285  100.00%
*     0+    0                           16.0000        0.0000           100.00%
      0     2        0.0000   357       16.0000        0.0000     3285  100.00%
Elapsed time = 6.35 sec. (6096.31 ticks, tree = 0.01 MB, solutions = 7)
*    17+    3                           15.0000        0.0000           100.00%
*    56+   17                           14.0000        0.0000           100.00%

Clique cuts applied:  886
Implied bound cuts applied:  40

Root node processing (before b&c):
  Real time             =    6.35 sec. (6096.40 ticks)
Parallel b&c, 4 threads:
  Real time             =    0.24 sec. (239.73 ticks)
  Sync time (average)   =    0.05 sec.
  Wait time (average)   =    0.00 sec.
                          ------------
Total (root+branch&cut) =    6.58 sec. (6336.13 ticks)
   | W
 L | 0  1  2  3 
---------------
 0 | . 11 11 11 
 1 | 3 11 11 11 
 2 | 1 11 11 11 
 3 | 1 11 11 11 
 4 | 6 11 11 11 
 5 | 8  8 10 10 
 6 | 8  8 10 10 
 7 | 7  7  9  9 
 8 | 7  7  9  9 
 9 | 5 12 12 12 
10 | 4 12 12 12 
11 | 2 12 12 12 
12 | 2 12 12 12 
13 | . 12 12 12 
14 | .  .  .  . 
15 | .  .  .  . 
16 | .  .  .  . 
17 | .  .  .  . 
18 | .  .  .  . 
19 | .  .  .  . 
20 | .  .  .  . 
21 | .  .  .  . 
22 | .  .  .  . 
23 | .  .  .  . 
24 | .  .  .  . 
25 | .  .  .  . 

Boxes' corners:       (w,l)
    Box  1 is at 
        top left     (0,2)
        bottom right (0,3)

    Box  2 is at 
        top left     (0,11)
        bottom right (0,12)

    Box  3 is at 
        top left     (0,1)
        bottom right (0,1)

    Box  4 is at 
        top left     (0,10)
        bottom right (0,10)

    Box  5 is at 
        top left     (0,9)
        bottom right (0,9)

    Box  6 is at 
        top left     (0,4)
        bottom right (0,4)

    Box  7 is at 
        top left     (0,7)
        bottom right (1,8)

    Box  8 is at 
        top left     (0,5)
        bottom right (1,6)

    Box  9 is at 
        top left     (2,7)
        bottom right (3,8)

    Box 10 is at 
        top left     (2,5)
        bottom right (3,6)

    Box 11 is at 
        top left     (1,0)
        bottom right (3,4)

    Box 12 is at 
        top left     (1,9)
        bottom right (3,13)

    Roll length used: 14
In 19.38 seconds
